RT is False
Default write of storage_offers_DA.csv just to have a file (but constraint should be inactive)
Reading model...
...model read.
creating competitive generators file...
...competitive generators recorded.
Loading data...
.. day-ahead data with real-time VRE data read.
Compiling instance...
...instance created.
Creating Offer Mitigation (model will solve as dispatch if TRUE)...
NOTE: storage offers will not be mitigated
...storage offer mitigation file created
Converting model to MPEC...
...converted
NOTE: initial MIP solve with only storage competitive to get feasible solution
Solving...

Welcome to IBM(R) ILOG(R) CPLEX(R) Interactive Optimizer 12.9.0.0
  with Simplex, Mixed Integer & Barrier Optimizers
5725-A06 5725-A29 5724-Y48 5724-Y49 5724-Y54 5724-Y55 5655-Y21
Copyright IBM Corp. 1988, 2019.  All Rights Reserved.

Type 'help' for a list of available commands.
Type 'help' followed by a command name for more
information on commands.

CPLEX> Logfile 'cplex.log' closed.
Logfile 'C:\Users\llavin\Desktop\test919\logs\tmpc0kf7fsg.cplex.log' open.
CPLEX> New value for parallel optimization mode: -1
CPLEX> New value for mixed integer optimality gap tolerance: 0.01
CPLEX> New value for integrality tolerance: 1e-09
CPLEX> New value for feasibility tolerance: 0.1
CPLEX> New value for deterministic time limit in ticks: 100000
CPLEX> Problem 'C:\Users\llavin\Desktop\test919\logs\tmpm0086hs4.pyomo.lp' read.
Read time = 0.23 sec. (13.86 ticks)
CPLEX> Problem name         : C:\Users\llavin\Desktop\test919\logs\tmpm0086hs4.pyomo.lp
Objective sense      : Maximize
Variables            :   53321  [Nneg: 1,  Box: 21806,  Free: 4416,
                                 Binary: 27098]
Objective nonzeros   :    8980
Linear constraints   :  122164  [Less: 40983,  Greater: 58612,  Equal: 22569]
  Nonzeros           :  288505
  RHS nonzeros       :   66982

Variables            : Min LB: -5000.000        Max UB: 1000000.       
Objective nonzeros   : Min   : 0.4000000        Max   : 760.4917       
Linear constraints   :
  Nonzeros           : Min   : 0.4000000        Max   : 1000000.       
  RHS nonzeros       : Min   : 0.4000000        Max   : 1000000.       
CPLEX> CPXPARAM_Parallel                                -1
CPXPARAM_Simplex_Tolerances_Feasibility          0.10000000000000001
CPXPARAM_DetTimeLimit                            100000
CPXPARAM_MIP_Tolerances_MIPGap                   0.01
CPXPARAM_MIP_Tolerances_Integrality              1.0000000000000001e-09
Tried aggregator 3 times.
MIP Presolve eliminated 88157 rows and 19013 columns.
MIP Presolve added 3371 rows and 0 columns.
MIP Presolve modified 23108 coefficients.
Aggregator did 12837 substitutions.
Reduced MIP has 24541 rows, 20915 columns, and 68751 nonzeros.
Reduced MIP has 8268 binaries, 0 generals, 0 SOSs, and 0 indicators.
Presolve time = 0.30 sec. (173.00 ticks)
Probing fixed 450 vars, tightened 2910 bounds.
Probing time = 1.24 sec. (909.64 ticks)
Tried aggregator 2 times.
MIP Presolve eliminated 1007 rows and 906 columns.
MIP Presolve modified 2190 coefficients.
Aggregator did 56 substitutions.
Reduced MIP has 23478 rows, 19953 columns, and 65653 nonzeros.
Reduced MIP has 7816 binaries, 0 generals, 0 SOSs, and 0 indicators.
Presolve time = 0.11 sec. (67.10 ticks)
Probing time = 0.03 sec. (15.56 ticks)
Clique table members: 6113.
MIP emphasis: balance optimality and feasibility.
MIP search method: dynamic search.
Parallel mode: opportunistic, using up to 32 threads.
Root relaxation solution time = 0.39 sec. (332.81 ticks)

        Nodes                                         Cuts/
   Node  Left     Objective  IInf  Best Integer    Best Bound    ItCnt     Gap

      0     0     3580.3999  1436                   3580.3999     7592         
      0     0     3566.8327   131                   Cuts: 130     7609         
      0     0     3566.8327   123                   Cuts: 180     7625         
      0     0     3566.8327   121                   Cuts: 106     7627         
      0     0     3566.8327    42                 Flowcuts: 1     7628         
      0     0     3566.8327    42                 Flowcuts: 4     7630         
*     0+    0                         3566.3024     3566.8327             0.01%

Implied bound cuts applied:  4
Flow cuts applied:  49
Mixed integer rounding cuts applied:  1
Gomory fractional cuts applied:  17

Root node processing (before b&c):
  Real time             =    5.28 sec. (3873.78 ticks)
Parallel b&c, 32 threads:
  Real time             =    0.00 sec. (0.00 ticks)
  Sync time (average)   =    0.00 sec.
  Wait time (average)   =    0.00 sec.
                          ------------
Total (root+branch&cut) =    5.28 sec. (3873.78 ticks)

Solution pool: 1 solution saved.

MIP - Integer optimal, tolerance (0.01/1e-06):  Objective =  3.5663023795e+03
Current MIP best bound =  3.5668327401e+03 (gap = 0.530361, 0.01%)
Solution time =    5.30 sec.  Iterations = 7630  Nodes = 0 (1)
Deterministic time = 3873.93 ticks  (731.34 ticks/sec)

CPLEX> Incumbent solution written to file 'C:\Users\llavin\Desktop\test919\logs\tmp9_g01vrh.cplex.sol'.
CPLEX> NOTE: no warmstart specified for MIP iteration, default behavior is true
NOTE: resolving with all competitive generators using storage-only solution to warmstart
Solving...

Welcome to IBM(R) ILOG(R) CPLEX(R) Interactive Optimizer 12.9.0.0
  with Simplex, Mixed Integer & Barrier Optimizers
5725-A06 5725-A29 5724-Y48 5724-Y49 5724-Y54 5724-Y55 5655-Y21
Copyright IBM Corp. 1988, 2019.  All Rights Reserved.

Type 'help' for a list of available commands.
Type 'help' followed by a command name for more
information on commands.

CPLEX> Logfile 'cplex.log' closed.
Logfile 'C:\Users\llavin\Desktop\test919\logs\tmpvryv3hw8.cplex.log' open.
CPLEX> New value for parallel optimization mode: -1
CPLEX> New value for mixed integer optimality gap tolerance: 0.01
CPLEX> New value for integrality tolerance: 1e-09
CPLEX> New value for feasibility tolerance: 0.1
CPLEX> New value for deterministic time limit in ticks: 100000
CPLEX> Problem 'C:\Users\llavin\Desktop\test919\logs\tmp64ae7vz4.pyomo.lp' read.
Read time = 0.24 sec. (13.88 ticks)
CPLEX> MIP start file 'C:\Users\llavin\Desktop\test919\logs\tmpjby7p4py.cplex.mst' read.
CPLEX> Problem name         : C:\Users\llavin\Desktop\test919\logs\tmp64ae7vz4.pyomo.lp
Objective sense      : Maximize
Variables            :   54041  [Nneg: 1,  Box: 22526,  Free: 4416,
                                 Binary: 27098]
Objective nonzeros   :    9700
Linear constraints   :  122164  [Less: 40983,  Greater: 58612,  Equal: 22569]
  Nonzeros           :  288505
  RHS nonzeros       :   66982

Variables            : Min LB: -5000.000        Max UB: 1000000.       
Objective nonzeros   : Min   : 0.4000000        Max   : 760.4917       
Linear constraints   :
  Nonzeros           : Min   : 0.4000000        Max   : 1000000.       
  RHS nonzeros       : Min   : 0.4000000        Max   : 1000000.       
CPLEX> CPXPARAM_Parallel                                -1
CPXPARAM_Simplex_Tolerances_Feasibility          0.10000000000000001
CPXPARAM_DetTimeLimit                            100000
CPXPARAM_MIP_Tolerances_MIPGap                   0.01
CPXPARAM_MIP_Tolerances_Integrality              1.0000000000000001e-09
Warning:  No solution found from 1 MIP starts.
Retaining values of one MIP start for possible repair.
Tried aggregator 3 times.
MIP Presolve eliminated 88157 rows and 19733 columns.
MIP Presolve added 3371 rows and 0 columns.
MIP Presolve modified 23108 coefficients.
Aggregator did 12837 substitutions.
Reduced MIP has 24541 rows, 20915 columns, and 68751 nonzeros.
Reduced MIP has 8268 binaries, 0 generals, 0 SOSs, and 0 indicators.
Presolve time = 0.30 sec. (173.36 ticks)
Probing fixed 450 vars, tightened 2910 bounds.
Probing time = 1.25 sec. (909.64 ticks)
Tried aggregator 2 times.
MIP Presolve eliminated 1007 rows and 906 columns.
MIP Presolve modified 2190 coefficients.
Aggregator did 56 substitutions.
Reduced MIP has 23478 rows, 19953 columns, and 65653 nonzeros.
Reduced MIP has 7816 binaries, 0 generals, 0 SOSs, and 0 indicators.
Presolve time = 0.11 sec. (67.10 ticks)
Probing time = 0.05 sec. (15.56 ticks)
Clique table members: 6113.
MIP emphasis: balance optimality and feasibility.
MIP search method: dynamic search.
Parallel mode: opportunistic, using up to 32 threads.
Root relaxation solution time = 0.39 sec. (332.81 ticks)

        Nodes                                         Cuts/
   Node  Left     Objective  IInf  Best Integer    Best Bound    ItCnt     Gap

      0     0     3580.3999  1436                   3580.3999     7592         
      0     0     3566.8327   131                   Cuts: 130     7609         
      0     0     3566.8327   123                   Cuts: 180     7625         
      0     0     3566.8327   121                   Cuts: 106     7627         
      0     0     3566.8327    42                 Flowcuts: 1     7628         
      0     0     3566.8327    42                 Flowcuts: 4     7630         
*     0+    0                         3566.3024     3566.8327             0.01%

Implied bound cuts applied:  4
Flow cuts applied:  49
Mixed integer rounding cuts applied:  1
Gomory fractional cuts applied:  17

Root node processing (before b&c):
  Real time             =    5.41 sec. (3901.20 ticks)
Parallel b&c, 32 threads:
  Real time             =    0.00 sec. (0.00 ticks)
  Sync time (average)   =    0.00 sec.
  Wait time (average)   =    0.00 sec.
                          ------------
Total (root+branch&cut) =    5.41 sec. (3901.20 ticks)

Solution pool: 1 solution saved.

MIP - Integer optimal, tolerance (0.01/1e-06):  Objective =  3.5663023795e+03
Current MIP best bound =  3.5668327401e+03 (gap = 0.530361, 0.01%)
Solution time =    5.44 sec.  Iterations = 7630  Nodes = 0 (1)
Deterministic time = 3901.35 ticks  (717.42 ticks/sec)

CPLEX> Incumbent solution written to file 'C:\Users\llavin\Desktop\test919\logs\tmpovfqlwh1.cplex.sol'.
CPLEX> Exporting results... 
